NAME 
ROWS
 N  OBJ
 L  R0      
 L  R1      
 E  R2      
 E  R3      
 E  R4      
 E  R5      
 E  R6      
 E  R7      
 E  R8      
 E  R9      
 E  R10     
 E  R11     
 E  R12     
 E  R13     
 E  R14     
 E  R15     
 E  R16     
 E  R17     
 E  R18     
 E  R19     
 E  R20     
 E  R21     
COLUMNS
    MARKER    'MARKER'                 'INTORG'
    I0(10)    OBJ       102
    I0(10)    R0        -168
    I0(10)    R1        -28
    I0(10)    R3        14
    I0(10)    R4        14
    I0(10)    R5        2
    I0(10)    R7        18
    I0(10)    R10       6
    I0(10)    R12       4
    I0(10)    R13       19
    I0(10)    R21       1
    I1(9)     OBJ       -70
    I1(9)     R0        128
    I1(9)     R1        143
    I1(9)     R2        18
    I1(9)     R4        1
    I1(9)     R5        18
    I1(9)     R6        9
    I1(9)     R8        18
    I1(9)     R10       9
    I1(9)     R21       1
    I2(8)     OBJ       -165
    I2(8)     R0        42
    I2(8)     R1        -73
    I2(8)     R2        3
    I2(8)     R4        9
    I2(8)     R5        10
    I2(8)     R8        3
    I2(8)     R11       -1
    I2(8)     R21       1
    I3(9)     OBJ       99
    I3(9)     R0        95
    I3(9)     R1        -120
    I3(9)     R2        7
    I3(9)     R5        15
    I3(9)     R8        17
    I3(9)     R9        7
    I3(9)     R12       3
    I3(9)     R13       2
    I3(9)     R21       1
    I4(9)     OBJ       -94
    I4(9)     R0        22
    I4(9)     R1        121
    I4(9)     R3        1
    I4(9)     R6        8
    I4(9)     R8        12
    I4(9)     R9        -1
    I4(9)     R12       10
    I4(9)     R13       15
    I4(9)     R21       1
    I5(8)     OBJ       -190
    I5(8)     R0        183
    I5(8)     R1        -200
    I5(8)     R3        13
    I5(8)     R4        3
    I5(8)     R7        5
    I5(8)     R8        11
    I5(8)     R11       -1
    I5(8)     R21       1
    I6(10)    OBJ       28
    I6(10)    R0        -183
    I6(10)    R1        192
    I6(10)    R2        2
    I6(10)    R3        17
    I6(10)    R6        10
    I6(10)    R7        14
    I6(10)    R9        1
    I6(10)    R11       18
    I6(10)    R12       13
    I6(10)    R21       1
    I7(12)    OBJ       196
    I7(12)    R0        -4
    I7(12)    R1        -19
    I7(12)    R5        11
    I7(12)    R6        11
    I7(12)    R7        19
    I7(12)    R8        9
    I7(12)    R9        2
    I7(12)    R10       14
    I7(12)    R11       3
    I7(12)    R12       5
    I7(12)    R13       10
    I7(12)    R21       1
    I8(10)    OBJ       121
    I8(10)    R0        141
    I8(10)    R1        162
    I8(10)    R5        15
    I8(10)    R6        10
    I8(10)    R9        19
    I8(10)    R10       14
    I8(10)    R11       12
    I8(10)    R12       3
    I8(10)    R13       4
    I8(10)    R21       1
    I9(9)     OBJ       -104
    I9(9)     R0        192
    I9(9)     R1        -194
    I9(9)     R2        3
    I9(9)     R3        17
    I9(9)     R4        19
    I9(9)     R8        19
    I9(9)     R10       7
    I9(9)     R12       8
    I9(9)     R21       1
    I10(8)    OBJ       194
    I10(8)    R0        -161
    I10(8)    R1        131
    I10(8)    R3        19
    I10(8)    R4        15
    I10(8)    R9        11
    I10(8)    R12       16
    I10(8)    R13       11
    I10(8)    R21       1
    I11(8)    OBJ       23
    I11(8)    R0        33
    I11(8)    R1        -74
    I11(8)    R3        19
    I11(8)    R7        10
    I11(8)    R10       11
    I11(8)    R11       16
    I11(8)    R13       12
    I11(8)    R21       1
    MARKER    'MARKER'                 'INTEND'
    C12(7)    OBJ       -1
    C12(7)    R0        1
    C12(7)    R1        -1
    C12(7)    R6        13
    C12(7)    R12       9
    C12(7)    R17       1
    C12(7)    R18       14
    C12(7)    R19       11
    C13(12)   R0        -10
    C13(12)   R1        7
    C13(12)   R2        13
    C13(12)   R5        7
    C13(12)   R6        10
    C13(12)   R7        19
    C13(12)   R12       12
    C13(12)   R15       3
    C13(12)   R16       19
    C13(12)   R17       5
    C13(12)   R18       17
    C13(12)   R20       17
    C14(14)   OBJ       -8
    C14(14)   R0        -10
    C14(14)   R1        -5
    C14(14)   R4        1
    C14(14)   R5        17
    C14(14)   R6        5
    C14(14)   R7        16
    C14(14)   R8        7
    C14(14)   R10       19
    C14(14)   R11       10
    C14(14)   R13       11
    C14(14)   R14       8
    C14(14)   R15       14
    C14(14)   R17       17
    C14(14)   R20       7
    C15(13)   OBJ       8
    C15(13)   R0        6
    C15(13)   R1        -7
    C15(13)   R2        10
    C15(13)   R3        2
    C15(13)   R4        18
    C15(13)   R5        17
    C15(13)   R9        14
    C15(13)   R10       16
    C15(13)   R11       9
    C15(13)   R12       18
    C15(13)   R13       14
    C15(13)   R16       17
    C15(13)   R18       10
    C16(13)   R0        8
    C16(13)   R1        5
    C16(13)   R2        8
    C16(13)   R5        3
    C16(13)   R7        10
    C16(13)   R9        5
    C16(13)   R11       1
    C16(13)   R12       3
    C16(13)   R13       8
    C16(13)   R15       4
    C16(13)   R17       16
    C16(13)   R18       9
    C16(13)   R20       11
    C17(11)   OBJ       -9
    C17(11)   R0        -5
    C17(11)   R1        -9
    C17(11)   R3        19
    C17(11)   R4        16
    C17(11)   R7        18
    C17(11)   R11       18
    C17(11)   R12       3
    C17(11)   R13       3
    C17(11)   R14       9
    C17(11)   R17       4
    C17(11)   R19       14
    C18(8)    OBJ       -2
    C18(8)    R0        9
    C18(8)    R1        2
    C18(8)    R2        1
    C18(8)    R5        1
    C18(8)    R8        6
    C18(8)    R10       10
    C18(8)    R16       2
    C18(8)    R19       5
    C19(12)   OBJ       -2
    C19(12)   R0        3
    C19(12)   R1        -4
    C19(12)   R2        4
    C19(12)   R5        12
    C19(12)   R7        9
    C19(12)   R9        10
    C19(12)   R10       18
    C19(12)   R11       7
    C19(12)   R12       19
    C19(12)   R16       1
    C19(12)   R18       6
    C19(12)   R19       6
    C20(1)    R2        1
    C21(1)    R3        1
    C22(1)    R4        1
    C23(1)    R5        1
    C24(1)    R6        1
    C25(1)    R7        1
    C26(1)    R8        1
    C27(1)    R9        1
    C28(1)    R10       1
    C29(1)    R11       1
    C30(1)    R12       1
    C31(1)    R13       1
    C32(1)    R14       1
    C33(1)    R15       1
    C34(1)    R16       1
    C35(1)    R17       1
    C36(1)    R18       1
    C37(1)    R19       1
    C38(1)    R20       1
    C39(1)    R21       1
RHS
    RHS1      R0        4.1665340909090912e+02
    RHS1      R1        -5.7642314593301433e+02
    RHS1      R2        66
    RHS1      R3        87
    RHS1      R4        51
    RHS1      R5        71
    RHS1      R6        84
    RHS1      R7        83
    RHS1      R8        74
    RHS1      R9        90
    RHS1      R10       54
    RHS1      R11       59
    RHS1      R12       92
    RHS1      R13       64
    RHS1      R14       60
    RHS1      R15       87
    RHS1      R16       89
    RHS1      R17       59
    RHS1      R18       51
    RHS1      R19       50
    RHS1      R20       77
    RHS1      R21       4
BOUNDS
 UP BND1      I0(10)    2
 UP BND1      I1(9)     2
 UP BND1      I2(8)     2
 UP BND1      I3(9)     2
 UP BND1      I4(9)     2
 UP BND1      I5(8)     2
 UP BND1      I6(10)    2
 UP BND1      I7(12)    2
 UP BND1      I8(10)    2
 UP BND1      I9(9)     2
 UP BND1      I10(8)    2
 UP BND1      I11(8)    2
ENDATA
